10	5
0	3	3	2	1
1	1	7
2	0
3	1	8
4	2	8	9
5	2	6	4
6	2	9	10
7	1	5
8	1	10
9	1	11
10	1	11
11	0
0	0	0	0	0	0	0
1	5	1	2	4	2	2
2	6	3	0	1	4	0
3	4	0	0	1	0	3
4	1	4	0	3	2	1
5	8	0	0	3	0	0
6	4	2	4	4	3	4
7	7	4	5	3	4	1
8	1	1	1	0	3	4
9	6	5	2	2	2	4
10	10	1	5	2	0	2
11	0	0	0	0	0	0
5	5	5	5	5
